language ESSENCE' 1.0
$ minion Nodes: 1
$ minion TotalTime: 0.000569
$ Savile Row TotalTime: 0.227
letting pain_tuple1 be [2;int(1)]
letting pain_tuple2_tuple1_tuple2 be [11;int(1)]
letting pain_tuple2_tuple1_tuple1 be [10;int(1)]
letting pain_tuple2_tuple2 be [12;int(1)]
